162688.0
1495
0 1 14 16 18 22 23 30 32 33 37 39 41 44 48 53 54 58 62 64 65 68 69 70 72 73 76 80 81 82 83 84 88 89 90 92 93 95 96 99 101 102 104 105 106 109 111 113 117 119 122 124 127 128 129 130 134 135 136 139 141 143 149 151 152 153 154 157 164 165 171 177 178 184 185 186 